c graph converted from Delauney Triangulation format
c weights on edges removed (lost)
x low 0.00
p edge 575 1699
n 0 1.00
n 2 1.00
n 1 1.00
n 24 1.00
n 23 1.00
n 46 1.00
n 9 1.00
n 8 1.00
n 5 1.00
n 3 1.00
n 25 1.00
n 4 1.00
n 26 1.00
n 6 1.00
n 29 1.00
n 27 1.00
n 28 1.00
n 7 1.00
n 32 1.00
n 30 1.00
n 31 1.00
n 10 1.00
n 16 1.00
n 13 1.00
n 11 1.00
n 33 1.00
n 12 1.00
n 34 1.00
n 36 1.00
n 14 1.00
n 38 1.00
n 15 1.00
n 17 1.00
n 40 1.00
n 39 1.00
n 21 1.00
n 19 1.00
n 18 1.00
n 41 1.00
n 42 1.00
n 20 1.00
n 43 1.00
n 45 1.00
n 44 1.00
n 22 1.00
n 68 1.00
n 91 1.00
n 114 1.00
n 47 1.00
n 49 1.00
n 48 1.00
n 51 1.00
n 52 1.00
n 54 1.00
n 56 1.00
n 55 1.00
n 35 1.00
n 57 1.00
n 58 1.00
n 37 1.00
n 59 1.00
n 61 1.00
n 60 1.00
n 63 1.00
n 64 1.00
n 65 1.00
n 66 1.00
n 71 1.00
n 70 1.00
n 69 1.00
n 72 1.00
n 50 1.00
n 73 1.00
n 75 1.00
n 53 1.00
n 76 1.00
n 77 1.00
n 78 1.00
n 79 1.00
n 81 1.00
n 82 1.00
n 62 1.00
n 85 1.00
n 84 1.00
n 83 1.00
n 86 1.00
n 88 1.00
n 89 1.00
n 67 1.00
n 92 1.00
n 115 1.00
n 95 1.00
n 93 1.00
n 74 1.00
n 96 1.00
n 97 1.00
n 99 1.00
n 98 1.00
n 101 1.00
n 80 1.00
n 105 1.00
n 103 1.00
n 106 1.00
n 109 1.00
n 108 1.00
n 87 1.00
n 111 1.00
n 110 1.00
n 133 1.00
n 90 1.00
n 112 1.00
n 113 1.00
n 94 1.00
n 116 1.00
n 118 1.00
n 117 1.00
n 119 1.00
n 122 1.00
n 120 1.00
n 100 1.00
n 102 1.00
n 124 1.00
n 123 1.00
n 125 1.00
n 104 1.00
n 128 1.00
n 126 1.00
n 127 1.00
n 107 1.00
n 130 1.00
n 131 1.00
n 135 1.00
n 134 1.00
n 137 1.00
n 136 1.00
n 138 1.00
n 184 1.00
n 230 1.00
n 140 1.00
n 143 1.00
n 142 1.00
n 121 1.00
n 145 1.00
n 144 1.00
n 146 1.00
n 147 1.00
n 150 1.00
n 148 1.00
n 149 1.00
n 129 1.00
n 151 1.00
n 153 1.00
n 152 1.00
n 132 1.00
n 154 1.00
n 157 1.00
n 155 1.00
n 156 1.00
n 158 1.00
n 160 1.00
n 159 1.00
n 183 1.00
n 298 1.00
n 139 1.00
n 161 1.00
n 141 1.00
n 163 1.00
n 162 1.00
n 165 1.00
n 166 1.00
n 168 1.00
n 167 1.00
n 169 1.00
n 171 1.00
n 172 1.00
n 174 1.00
n 173 1.00
n 177 1.00
n 175 1.00
n 179 1.00
n 178 1.00
n 181 1.00
n 182 1.00
n 186 1.00
n 164 1.00
n 189 1.00
n 187 1.00
n 188 1.00
n 191 1.00
n 170 1.00
n 193 1.00
n 195 1.00
n 194 1.00
n 197 1.00
n 196 1.00
n 176 1.00
n 199 1.00
n 198 1.00
n 200 1.00
n 202 1.00
n 180 1.00
n 203 1.00
n 205 1.00
n 204 1.00
n 206 1.00
n 229 1.00
n 252 1.00
n 185 1.00
n 208 1.00
n 207 1.00
n 209 1.00
n 211 1.00
n 190 1.00
n 192 1.00
n 215 1.00
n 214 1.00
n 212 1.00
n 213 1.00
n 216 1.00
n 218 1.00
n 220 1.00
n 219 1.00
n 221 1.00
n 223 1.00
n 201 1.00
n 225 1.00
n 228 1.00
n 227 1.00
n 226 1.00
n 232 1.00
n 231 1.00
n 210 1.00
n 234 1.00
n 233 1.00
n 235 1.00
n 236 1.00
n 237 1.00
n 238 1.00
n 217 1.00
n 240 1.00
n 239 1.00
n 242 1.00
n 243 1.00
n 244 1.00
n 222 1.00
n 224 1.00
n 246 1.00
n 245 1.00
n 248 1.00
n 247 1.00
n 249 1.00
n 251 1.00
n 250 1.00
n 253 1.00
n 276 1.00
n 299 1.00
n 368 1.00
n 255 1.00
n 257 1.00
n 256 1.00
n 259 1.00
n 261 1.00
n 263 1.00
n 241 1.00
n 266 1.00
n 265 1.00
n 264 1.00
n 268 1.00
n 270 1.00
n 269 1.00
n 271 1.00
n 273 1.00
n 272 1.00
n 274 1.00
n 275 1.00
n 254 1.00
n 278 1.00
n 258 1.00
n 281 1.00
n 279 1.00
n 260 1.00
n 282 1.00
n 285 1.00
n 283 1.00
n 284 1.00
n 262 1.00
n 288 1.00
n 286 1.00
n 267 1.00
n 289 1.00
n 291 1.00
n 292 1.00
n 294 1.00
n 293 1.00
n 296 1.00
n 295 1.00
n 297 1.00
n 277 1.00
n 301 1.00
n 300 1.00
n 303 1.00
n 280 1.00
n 305 1.00
n 306 1.00
n 308 1.00
n 307 1.00
n 287 1.00
n 310 1.00
n 309 1.00
n 290 1.00
n 313 1.00
n 312 1.00
n 314 1.00
n 317 1.00
n 315 1.00
n 316 1.00
n 319 1.00
n 320 1.00
n 321 1.00
n 390 1.00
n 323 1.00
n 322 1.00
n 302 1.00
n 324 1.00
n 327 1.00
n 326 1.00
n 325 1.00
n 304 1.00
n 329 1.00
n 331 1.00
n 330 1.00
n 311 1.00
n 334 1.00
n 333 1.00
n 337 1.00
n 335 1.00
n 338 1.00
n 318 1.00
n 339 1.00
n 341 1.00
n 340 1.00
n 342 1.00
n 343 1.00
n 344 1.00
n 346 1.00
n 345 1.00
n 347 1.00
n 348 1.00
n 349 1.00
n 350 1.00
n 328 1.00
n 354 1.00
n 352 1.00
n 351 1.00
n 332 1.00
n 356 1.00
n 355 1.00
n 357 1.00
n 336 1.00
n 358 1.00
n 361 1.00
n 360 1.00
n 359 1.00
n 363 1.00
n 362 1.00
n 364 1.00
n 365 1.00
n 367 1.00
n 369 1.00
n 370 1.00
n 373 1.00
n 372 1.00
n 375 1.00
n 353 1.00
n 377 1.00
n 376 1.00
n 378 1.00
n 380 1.00
n 379 1.00
n 382 1.00
n 381 1.00
n 384 1.00
n 385 1.00
n 389 1.00
n 387 1.00
n 366 1.00
n 392 1.00
n 391 1.00
n 414 1.00
n 437 1.00
n 483 1.00
n 506 1.00
n 393 1.00
n 371 1.00
n 394 1.00
n 374 1.00
n 396 1.00
n 397 1.00
n 400 1.00
n 399 1.00
n 398 1.00
n 402 1.00
n 403 1.00
n 383 1.00
n 404 1.00
n 405 1.00
n 408 1.00
n 407 1.00
n 406 1.00
n 386 1.00
n 409 1.00
n 388 1.00
n 410 1.00
n 412 1.00
n 411 1.00
n 413 1.00
n 436 1.00
n 417 1.00
n 415 1.00
n 395 1.00
n 418 1.00
n 420 1.00
n 419 1.00
n 421 1.00
n 423 1.00
n 401 1.00
n 424 1.00
n 425 1.00
n 427 1.00
n 428 1.00
n 430 1.00
n 429 1.00
n 432 1.00
n 431 1.00
n 435 1.00
n 433 1.00
n 416 1.00
n 438 1.00
n 440 1.00
n 439 1.00
n 422 1.00
n 443 1.00
n 441 1.00
n 444 1.00
n 446 1.00
n 445 1.00
n 448 1.00
n 447 1.00
n 426 1.00
n 450 1.00
n 449 1.00
n 454 1.00
n 451 1.00
n 452 1.00
n 455 1.00
n 434 1.00
n 459 1.00
n 456 1.00
n 458 1.00
n 457 1.00
n 505 1.00
n 551 1.00
n 461 1.00
n 460 1.00
n 462 1.00
n 464 1.00
n 463 1.00
n 442 1.00
n 466 1.00
n 465 1.00
n 467 1.00
n 470 1.00
n 468 1.00
n 469 1.00
n 472 1.00
n 471 1.00
n 474 1.00
n 473 1.00
n 453 1.00
n 475 1.00
n 476 1.00
n 478 1.00
n 481 1.00
n 480 1.00
n 482 1.00
n 485 1.00
n 484 1.00
n 487 1.00
n 489 1.00
n 490 1.00
n 491 1.00
n 492 1.00
n 493 1.00
n 496 1.00
n 494 1.00
n 498 1.00
n 499 1.00
n 477 1.00
n 479 1.00
n 500 1.00
n 502 1.00
n 504 1.00
n 503 1.00
n 486 1.00
n 508 1.00
n 510 1.00
n 509 1.00
n 488 1.00
n 511 1.00
n 513 1.00
n 515 1.00
n 517 1.00
n 495 1.00
n 518 1.00
n 497 1.00
n 520 1.00
n 519 1.00
n 521 1.00
n 522 1.00
n 501 1.00
n 523 1.00
n 524 1.00
n 525 1.00
n 527 1.00
n 528 1.00
n 507 1.00
n 529 1.00
n 552 1.00
n 531 1.00
n 533 1.00
n 512 1.00
n 534 1.00
n 514 1.00
n 536 1.00
n 535 1.00
n 516 1.00
n 537 1.00
n 540 1.00
n 539 1.00
n 538 1.00
n 541 1.00
n 543 1.00
n 545 1.00
n 547 1.00
n 526 1.00
n 548 1.00
n 549 1.00
n 530 1.00
n 553 1.00
n 555 1.00
n 554 1.00
n 532 1.00
n 556 1.00
n 559 1.00
n 558 1.00
n 560 1.00
n 561 1.00
n 562 1.00
n 563 1.00
n 542 1.00
n 564 1.00
n 544 1.00
n 566 1.00
n 567 1.00
n 546 1.00
n 569 1.00
n 568 1.00
n 571 1.00
n 550 1.00
n 572 1.00
n 574 1.00
n 573 1.00
n 557 1.00
n 565 1.00
n 570 1.00
e 0 2
e 0 1
e 0 24
e 0 23
e 0 46
e 1 9
e 1 8
e 1 5
e 1 2
e 2 5
e 2 3
e 2 24
e 2 25
e 3 5
e 3 4
e 3 26
e 3 25
e 4 5
e 4 26
e 4 6
e 4 29
e 4 27
e 4 28
e 5 8
e 5 6
e 6 8
e 6 7
e 6 29
e 7 8
e 7 29
e 7 32
e 7 30
e 7 31
e 8 9
e 8 10
e 8 32
e 9 16
e 9 13
e 9 11
e 9 10
e 10 11
e 10 33
e 10 32
e 11 13
e 11 12
e 11 33
e 12 13
e 12 33
e 12 34
e 12 36
e 13 16
e 13 14
e 13 38
e 13 36
e 14 16
e 14 15
e 14 38
e 15 16
e 15 17
e 15 40
e 15 39
e 15 38
e 16 21
e 16 17
e 17 21
e 17 19
e 17 18
e 17 41
e 17 40
e 18 19
e 18 41
e 18 42
e 19 21
e 19 20
e 19 42
e 19 43
e 20 21
e 20 45
e 20 44
e 20 43
e 21 45
e 21 22
e 22 45
e 22 68
e 22 91
e 22 114
e 23 24
e 23 47
e 23 46
e 24 25
e 24 47
e 25 26
e 25 47
e 25 49
e 25 48
e 26 27
e 26 49
e 27 28
e 27 49
e 27 51
e 28 29
e 28 52
e 28 51
e 29 30
e 29 52
e 30 31
e 30 52
e 30 54
e 31 32
e 31 56
e 31 55
e 31 54
e 32 33
e 32 34
e 32 56
e 33 34
e 34 36
e 34 35
e 34 57
e 34 56
e 35 36
e 35 57
e 35 58
e 36 38
e 36 37
e 36 58
e 36 59
e 37 38
e 37 61
e 37 60
e 37 59
e 38 39
e 38 61
e 39 40
e 39 61
e 39 63
e 40 41
e 40 63
e 40 42
e 40 64
e 41 42
e 42 43
e 42 64
e 42 65
e 43 44
e 43 66
e 43 65
e 44 45
e 44 68
e 44 66
e 45 68
e 46 47
e 46 48
e 46 71
e 46 70
e 46 69
e 47 48
e 48 49
e 48 72
e 48 71
e 49 51
e 49 50
e 49 72
e 50 51
e 50 72
e 50 73
e 50 75
e 51 52
e 51 75
e 52 54
e 52 53
e 52 75
e 53 54
e 53 75
e 53 76
e 53 77
e 54 55
e 54 78
e 54 77
e 55 56
e 55 79
e 55 78
e 56 57
e 56 79
e 57 58
e 57 79
e 58 59
e 58 79
e 58 81
e 59 60
e 59 81
e 59 82
e 60 61
e 60 62
e 60 85
e 60 82
e 60 84
e 60 83
e 61 63
e 61 62
e 62 63
e 62 85
e 63 64
e 63 86
e 63 85
e 64 65
e 64 86
e 64 88
e 65 66
e 65 89
e 65 88
e 66 68
e 66 67
e 66 89
e 67 68
e 67 91
e 67 89
e 68 91
e 69 70
e 69 92
e 69 115
e 70 71
e 70 92
e 70 95
e 70 93
e 71 72
e 71 95
e 72 73
e 72 95
e 73 75
e 73 74
e 73 95
e 73 96
e 74 75
e 74 96
e 74 97
e 75 76
e 75 99
e 75 97
e 75 98
e 76 77
e 76 99
e 77 78
e 77 99
e 77 101
e 78 79
e 78 80
e 78 101
e 79 81
e 79 80
e 80 81
e 80 82
e 80 105
e 80 101
e 80 103
e 81 82
e 82 83
e 82 105
e 83 84
e 83 105
e 83 106
e 84 85
e 84 109
e 84 106
e 84 108
e 85 86
e 85 109
e 86 88
e 86 87
e 86 109
e 87 88
e 87 109
e 87 111
e 87 110
e 87 133
e 88 89
e 88 111
e 89 91
e 89 90
e 89 112
e 89 111
e 90 91
e 90 112
e 90 114
e 90 113
e 91 114
e 92 93
e 92 115
e 93 95
e 93 94
e 93 115
e 93 116
e 94 95
e 94 116
e 94 118
e 94 117
e 95 96
e 95 118
e 96 97
e 96 118
e 96 119
e 97 98
e 97 119
e 98 99
e 98 122
e 98 119
e 98 120
e 99 101
e 99 100
e 99 122
e 100 101
e 100 122
e 100 102
e 100 124
e 100 123
e 101 103
e 101 102
e 102 103
e 102 125
e 102 124
e 103 105
e 103 104
e 103 125
e 104 105
e 104 128
e 104 125
e 104 126
e 104 127
e 105 106
e 105 128
e 106 108
e 106 107
e 106 128
e 106 130
e 107 108
e 107 130
e 108 109
e 108 133
e 108 130
e 108 131
e 109 133
e 110 111
e 110 133
e 110 135
e 110 134
e 111 112
e 111 113
e 111 135
e 112 113
e 113 114
e 113 137
e 113 135
e 113 136
e 114 137
e 115 116
e 115 138
e 115 184
e 115 230
e 116 117
e 116 138
e 117 118
e 117 138
e 117 140
e 118 119
e 118 143
e 118 140
e 118 142
e 119 120
e 119 143
e 120 122
e 120 121
e 120 143
e 121 122
e 121 123
e 121 145
e 121 143
e 121 144
e 122 123
e 123 124
e 123 146
e 123 145
e 124 125
e 124 126
e 124 146
e 124 147
e 125 126
e 126 127
e 126 147
e 126 150
e 126 148
e 126 149
e 127 128
e 127 129
e 127 150
e 127 151
e 128 130
e 128 129
e 129 130
e 129 131
e 129 153
e 129 151
e 129 152
e 130 131
e 131 133
e 131 132
e 131 154
e 131 153
e 132 133
e 132 134
e 132 154
e 132 157
e 132 155
e 132 156
e 133 134
e 134 135
e 134 157
e 135 136
e 135 157
e 135 158
e 136 137
e 136 160
e 136 158
e 136 159
e 137 160
e 137 183
e 137 298
e 138 140
e 138 139
e 138 161
e 138 184
e 139 140
e 139 141
e 139 163
e 139 162
e 139 161
e 140 142
e 140 141
e 141 142
e 141 163
e 141 165
e 142 143
e 142 166
e 142 165
e 143 144
e 143 166
e 144 145
e 144 168
e 144 166
e 144 167
e 145 146
e 145 168
e 145 169
e 145 147
e 146 147
e 147 148
e 147 171
e 147 169
e 148 149
e 148 171
e 148 172
e 149 150
e 149 172
e 149 151
e 150 151
e 151 152
e 151 172
e 151 174
e 151 173
e 152 153
e 152 177
e 152 174
e 152 175
e 153 154
e 153 177
e 154 155
e 154 177
e 155 156
e 155 177
e 155 179
e 155 178
e 156 157
e 156 158
e 156 181
e 156 179
e 157 158
e 158 159
e 158 181
e 159 160
e 159 181
e 159 182
e 160 182
e 160 183
e 161 162
e 161 184
e 162 163
e 162 184
e 162 186
e 163 165
e 163 164
e 163 186
e 164 165
e 164 189
e 164 186
e 164 187
e 164 188
e 165 166
e 165 189
e 166 167
e 166 189
e 167 168
e 167 191
e 167 189
e 168 169
e 168 191
e 169 171
e 169 170
e 169 191
e 170 171
e 170 191
e 170 193
e 171 172
e 171 193
e 171 195
e 171 194
e 172 173
e 172 195
e 173 174
e 173 195
e 173 197
e 173 196
e 174 175
e 174 197
e 175 177
e 175 176
e 175 197
e 175 199
e 175 198
e 176 177
e 176 200
e 176 199
e 177 178
e 177 200
e 178 179
e 178 202
e 178 200
e 179 181
e 179 180
e 179 202
e 180 181
e 180 182
e 180 202
e 180 203
e 180 183
e 180 205
e 180 204
e 181 182
e 182 183
e 183 205
e 183 206
e 183 229
e 183 252
e 183 298
e 184 186
e 184 185
e 184 208
e 184 207
e 184 230
e 185 186
e 185 208
e 185 209
e 186 187
e 186 211
e 186 209
e 187 188
e 187 211
e 188 189
e 188 211
e 189 191
e 189 190
e 189 211
e 190 191
e 190 192
e 190 215
e 190 214
e 190 211
e 190 212
e 190 213
e 191 193
e 191 192
e 192 193
e 192 216
e 192 215
e 193 194
e 193 216
e 194 195
e 194 216
e 194 218
e 195 196
e 195 218
e 196 197
e 196 220
e 196 218
e 196 219
e 197 198
e 197 220
e 198 199
e 198 221
e 198 220
e 199 200
e 199 223
e 199 221
e 200 202
e 200 201
e 200 223
e 201 202
e 201 203
e 201 223
e 201 225
e 202 203
e 203 204
e 203 225
e 204 205
e 204 228
e 204 225
e 204 227
e 204 226
e 205 206
e 205 228
e 206 228
e 206 229
e 207 208
e 207 209
e 207 232
e 207 231
e 207 230
e 208 209
e 209 211
e 209 210
e 209 232
e 210 211
e 210 212
e 210 232
e 210 234
e 210 233
e 211 212
e 212 213
e 212 235
e 212 234
e 213 214
e 213 235
e 213 236
e 213 237
e 214 215
e 214 238
e 214 237
e 215 216
e 215 217
e 215 238
e 216 218
e 216 217
e 217 218
e 217 240
e 217 238
e 217 239
e 218 219
e 218 242
e 218 240
e 219 220
e 219 242
e 219 243
e 220 221
e 220 244
e 220 243
e 221 223
e 221 222
e 221 244
e 222 223
e 222 224
e 222 244
e 222 246
e 222 245
e 223 225
e 223 224
e 224 225
e 224 248
e 224 247
e 224 246
e 225 226
e 225 248
e 226 227
e 226 248
e 226 249
e 227 228
e 227 229
e 227 252
e 227 251
e 227 249
e 227 250
e 228 229
e 229 252
e 230 231
e 230 253
e 230 276
e 230 299
e 230 368
e 231 232
e 231 233
e 231 255
e 231 253
e 232 233
e 233 234
e 233 255
e 233 257
e 233 256
e 234 235
e 234 236
e 234 257
e 235 236
e 236 237
e 236 257
e 236 259
e 237 238
e 237 259
e 237 261
e 238 239
e 238 261
e 239 240
e 239 263
e 239 261
e 240 242
e 240 241
e 240 263
e 241 242
e 241 243
e 241 266
e 241 265
e 241 263
e 241 264
e 242 243
e 243 244
e 243 266
e 244 245
e 244 266
e 244 268
e 245 246
e 245 268
e 246 247
e 246 270
e 246 268
e 246 269
e 247 248
e 247 271
e 247 270
e 248 249
e 248 271
e 249 250
e 249 271
e 249 273
e 249 272
e 250 251
e 250 274
e 250 273
e 251 252
e 251 274
e 251 275
e 252 275
e 252 298
e 253 255
e 253 254
e 253 276
e 254 255
e 254 276
e 254 256
e 254 278
e 255 256
e 256 257
e 256 258
e 256 281
e 256 279
e 256 278
e 257 259
e 257 258
e 258 259
e 258 281
e 259 261
e 259 260
e 259 281
e 259 282
e 260 261
e 260 282
e 260 285
e 260 283
e 260 284
e 261 263
e 261 262
e 261 285
e 262 263
e 262 285
e 262 288
e 262 286
e 263 264
e 263 288
e 264 265
e 264 288
e 265 266
e 265 267
e 265 289
e 265 288
e 266 268
e 266 267
e 267 268
e 267 291
e 267 289
e 268 269
e 268 291
e 269 270
e 269 291
e 269 272
e 269 292
e 269 294
e 269 293
e 270 271
e 270 272
e 271 272
e 272 273
e 272 296
e 272 294
e 272 295
e 273 274
e 273 296
e 274 275
e 274 296
e 274 297
e 275 298
e 275 297
e 276 278
e 276 277
e 276 299
e 277 278
e 277 301
e 277 300
e 277 299
e 278 279
e 278 301
e 278 303
e 279 281
e 279 280
e 279 303
e 280 281
e 280 282
e 280 305
e 280 303
e 281 282
e 282 283
e 282 305
e 283 284
e 283 305
e 283 306
e 284 285
e 284 286
e 284 308
e 284 306
e 284 307
e 285 286
e 286 288
e 286 287
e 286 310
e 286 309
e 286 308
e 287 288
e 287 289
e 287 290
e 287 310
e 287 313
e 287 312
e 288 289
e 289 291
e 289 290
e 290 291
e 290 292
e 290 314
e 290 313
e 291 292
e 292 293
e 292 314
e 293 294
e 293 314
e 293 317
e 293 315
e 293 316
e 294 295
e 294 317
e 295 296
e 295 317
e 295 319
e 296 297
e 296 320
e 296 319
e 297 298
e 297 320
e 297 321
e 298 321
e 298 390
e 299 300
e 299 323
e 299 322
e 299 368
e 300 301
e 300 302
e 300 324
e 300 323
e 301 303
e 301 302
e 302 303
e 302 324
e 302 327
e 302 326
e 302 325
e 303 305
e 303 304
e 303 327
e 304 305
e 304 306
e 304 329
e 304 327
e 305 306
e 306 307
e 306 329
e 307 308
e 307 329
e 307 331
e 307 330
e 308 309
e 308 331
e 309 310
e 309 331
e 309 311
e 310 312
e 310 311
e 311 312
e 311 334
e 311 333
e 311 331
e 312 313
e 312 315
e 312 337
e 312 334
e 312 335
e 313 314
e 313 315
e 314 315
e 315 316
e 315 338
e 315 337
e 316 317
e 316 338
e 316 318
e 316 339
e 316 341
e 316 340
e 317 319
e 317 318
e 318 319
e 318 342
e 318 341
e 319 320
e 319 342
e 319 343
e 320 321
e 320 343
e 321 343
e 321 344
e 321 390
e 322 323
e 322 346
e 322 345
e 322 368
e 323 324
e 323 347
e 323 346
e 324 325
e 324 348
e 324 347
e 325 326
e 325 349
e 325 348
e 326 327
e 326 349
e 326 350
e 327 329
e 327 328
e 327 350
e 328 329
e 328 330
e 328 354
e 328 350
e 328 352
e 328 351
e 329 330
e 330 331
e 330 332
e 330 354
e 331 333
e 331 332
e 332 333
e 332 354
e 332 356
e 332 355
e 333 334
e 333 356
e 333 357
e 334 335
e 334 357
e 335 337
e 335 336
e 335 357
e 335 358
e 336 337
e 336 361
e 336 360
e 336 359
e 336 358
e 337 338
e 337 339
e 337 361
e 338 339
e 339 340
e 339 361
e 339 363
e 339 362
e 340 341
e 340 364
e 340 363
e 341 342
e 341 343
e 341 365
e 341 364
e 342 343
e 343 344
e 343 365
e 344 365
e 344 367
e 344 390
e 345 346
e 345 369
e 345 368
e 346 347
e 346 370
e 346 369
e 347 348
e 347 370
e 348 349
e 348 370
e 349 350
e 349 370
e 350 351
e 350 373
e 350 372
e 350 370
e 351 352
e 351 373
e 351 375
e 352 354
e 352 353
e 352 375
e 353 354
e 353 355
e 353 377
e 353 375
e 353 376
e 354 355
e 355 356
e 355 378
e 355 377
e 356 357
e 356 378
e 357 358
e 357 378
e 357 380
e 357 379
e 358 359
e 358 382
e 358 380
e 358 381
e 359 360
e 359 382
e 360 361
e 360 362
e 360 384
e 360 382
e 361 362
e 362 363
e 362 385
e 362 384
e 363 364
e 363 385
e 363 389
e 363 387
e 364 365
e 364 366
e 364 389
e 365 367
e 365 366
e 366 367
e 366 389
e 366 390
e 367 390
e 368 369
e 368 392
e 368 391
e 368 414
e 368 437
e 368 483
e 368 506
e 369 370
e 369 393
e 369 392
e 369 371
e 370 372
e 370 371
e 371 372
e 371 393
e 371 394
e 372 373
e 372 374
e 372 394
e 372 396
e 373 375
e 373 374
e 374 375
e 374 376
e 374 396
e 374 397
e 375 376
e 376 377
e 376 400
e 376 399
e 376 397
e 376 398
e 377 378
e 377 379
e 377 402
e 377 400
e 378 379
e 379 380
e 379 402
e 380 381
e 380 402
e 380 403
e 381 382
e 381 383
e 381 403
e 381 404
e 381 405
e 382 384
e 382 383
e 383 384
e 383 408
e 383 407
e 383 406
e 383 405
e 384 385
e 384 386
e 384 408
e 385 387
e 385 409
e 385 386
e 386 409
e 386 408
e 387 389
e 387 409
e 387 388
e 387 410
e 388 412
e 388 389
e 388 410
e 388 411
e 389 390
e 389 412
e 390 412
e 390 413
e 390 436
e 391 392
e 391 393
e 391 417
e 391 415
e 391 414
e 392 393
e 393 394
e 393 417
e 394 396
e 394 395
e 394 417
e 395 396
e 395 417
e 395 418
e 395 420
e 395 419
e 396 397
e 396 420
e 397 398
e 397 421
e 397 420
e 398 399
e 398 421
e 399 400
e 399 421
e 399 423
e 400 402
e 400 401
e 400 424
e 400 423
e 401 402
e 401 403
e 401 404
e 401 425
e 401 424
e 402 403
e 403 404
e 404 405
e 404 425
e 404 427
e 405 406
e 405 428
e 405 427
e 406 407
e 406 428
e 406 430
e 406 429
e 407 408
e 407 430
e 408 409
e 408 432
e 408 430
e 408 431
e 409 410
e 409 432
e 410 411
e 410 432
e 411 412
e 411 432
e 411 413
e 411 435
e 411 433
e 412 413
e 413 435
e 413 436
e 414 415
e 414 416
e 414 438
e 414 437
e 415 417
e 415 416
e 416 417
e 416 440
e 416 438
e 416 439
e 417 418
e 417 440
e 418 419
e 418 440
e 419 420
e 419 440
e 419 422
e 419 443
e 419 441
e 420 421
e 420 422
e 421 423
e 421 422
e 422 423
e 422 443
e 422 444
e 422 446
e 422 445
e 423 424
e 423 448
e 423 447
e 423 446
e 424 425
e 424 448
e 425 427
e 425 426
e 425 448
e 426 427
e 426 448
e 426 450
e 426 449
e 427 428
e 427 450
e 427 429
e 428 429
e 429 430
e 429 454
e 429 450
e 429 451
e 429 452
e 430 431
e 430 454
e 431 432
e 431 433
e 431 455
e 431 454
e 432 433
e 433 435
e 433 434
e 433 455
e 434 435
e 434 455
e 434 459
e 434 456
e 434 458
e 434 457
e 435 436
e 435 459
e 436 459
e 436 505
e 436 551
e 437 438
e 437 461
e 437 460
e 437 483
e 438 439
e 438 462
e 438 461
e 439 440
e 439 441
e 439 464
e 439 463
e 439 462
e 440 441
e 441 443
e 441 442
e 441 464
e 442 443
e 442 466
e 442 464
e 442 465
e 443 444
e 443 466
e 444 445
e 444 466
e 444 467
e 445 446
e 445 467
e 445 447
e 445 470
e 445 468
e 445 469
e 446 447
e 447 448
e 447 470
e 448 449
e 448 470
e 449 450
e 449 470
e 449 472
e 449 471
e 450 451
e 450 472
e 451 452
e 451 472
e 451 474
e 451 473
e 452 454
e 452 453
e 452 475
e 452 474
e 453 454
e 453 475
e 453 476
e 453 478
e 454 455
e 454 478
e 455 456
e 455 478
e 456 457
e 456 478
e 457 458
e 457 481
e 457 478
e 457 480
e 458 459
e 458 481
e 459 481
e 459 482
e 459 505
e 460 461
e 460 483
e 460 485
e 460 484
e 461 462
e 461 485
e 462 463
e 462 485
e 463 464
e 463 485
e 463 487
e 464 465
e 464 487
e 465 466
e 465 467
e 465 489
e 465 487
e 466 467
e 467 468
e 467 490
e 467 489
e 468 469
e 468 490
e 468 491
e 468 492
e 469 470
e 469 493
e 469 492
e 470 471
e 470 493
e 471 472
e 471 493
e 471 473
e 471 496
e 471 494
e 472 473
e 473 474
e 473 496
e 474 475
e 474 496
e 474 498
e 474 499
e 475 476
e 475 499
e 476 478
e 476 477
e 476 499
e 477 478
e 477 479
e 477 499
e 477 500
e 477 502
e 478 480
e 478 479
e 479 480
e 479 502
e 480 481
e 480 504
e 480 503
e 480 502
e 481 482
e 481 504
e 482 504
e 482 505
e 483 484
e 483 506
e 484 485
e 484 486
e 484 508
e 484 506
e 485 487
e 485 486
e 486 487
e 486 510
e 486 508
e 486 509
e 487 489
e 487 488
e 487 510
e 488 489
e 488 511
e 488 510
e 489 490
e 489 491
e 489 513
e 489 511
e 490 491
e 491 492
e 491 515
e 491 513
e 492 493
e 492 515
e 492 494
e 492 517
e 493 494
e 494 496
e 494 495
e 494 518
e 494 517
e 495 496
e 495 497
e 495 518
e 496 498
e 496 497
e 497 498
e 497 520
e 497 518
e 497 519
e 498 499
e 498 521
e 498 520
e 499 500
e 499 522
e 499 521
e 500 502
e 500 501
e 500 522
e 500 523
e 501 502
e 501 523
e 501 524
e 502 503
e 502 525
e 502 524
e 503 504
e 503 525
e 503 505
e 503 527
e 504 505
e 505 527
e 505 528
e 505 551
e 506 508
e 506 507
e 506 529
e 506 552
e 507 508
e 507 509
e 507 529
e 507 531
e 508 509
e 509 510
e 509 533
e 509 531
e 510 511
e 510 512
e 510 533
e 510 534
e 511 513
e 511 512
e 512 513
e 512 514
e 512 536
e 512 535
e 512 534
e 513 515
e 513 514
e 514 515
e 514 516
e 514 536
e 514 537
e 515 517
e 515 516
e 516 517
e 516 540
e 516 537
e 516 539
e 516 538
e 517 518
e 517 540
e 517 519
e 517 541
e 518 519
e 519 520
e 519 543
e 519 541
e 520 521
e 520 543
e 521 522
e 521 543
e 521 545
e 522 523
e 522 545
e 523 524
e 523 547
e 523 545
e 524 525
e 524 526
e 524 548
e 524 547
e 525 527
e 525 526
e 526 527
e 526 548
e 526 549
e 527 528
e 527 549
e 528 549
e 528 551
e 529 531
e 529 530
e 529 553
e 529 552
e 530 531
e 530 555
e 530 554
e 530 553
e 531 533
e 531 532
e 531 555
e 532 533
e 532 556
e 532 555
e 533 534
e 533 556
e 534 535
e 534 556
e 534 559
e 534 558
e 535 536
e 535 537
e 535 560
e 535 559
e 536 537
e 537 538
e 537 560
e 538 539
e 538 560
e 538 561
e 538 562
e 539 540
e 539 541
e 539 563
e 539 562
e 540 541
e 541 543
e 541 542
e 541 563
e 541 564
e 542 543
e 542 544
e 542 564
e 542 566
e 543 545
e 543 544
e 544 545
e 544 567
e 544 566
e 545 547
e 545 546
e 545 567
e 546 547
e 546 567
e 546 569
e 546 568
e 547 548
e 547 569
e 547 549
e 547 571
e 548 549
e 549 551
e 549 550
e 549 571
e 549 572
e 550 551
e 550 574
e 550 572
e 550 573
e 551 574
e 552 553
e 552 554
e 552 557
e 553 554
e 554 555
e 554 557
e 555 556
e 555 557
e 556 558
e 556 557
e 557 558
e 557 565
e 557 570
e 558 559
e 558 560
e 558 562
e 558 565
e 559 560
e 560 561
e 560 562
e 561 562
e 562 563
e 562 565
e 563 564
e 563 565
e 564 566
e 564 565
e 565 566
e 565 568
e 565 570
e 566 567
e 566 568
e 567 568
e 568 569
e 568 570
e 569 571
e 569 570
e 570 571
e 570 572
e 570 573
e 571 572
e 572 573
e 573 574
